unsat
(define-fun SC ((s (_ BitVec 4)) (t (_ BitVec 4))) Bool (bvult #b0000 (bvnot t)))
0.04user 0.01system 0:00.06elapsed 98%CPU (0avgtext+0avgdata 28732maxresident)k
0inputs+8outputs (0major+1801minor)pagefaults 0swaps
